Name:		CBMix13
Optimal value:	-1
#Vehicles:	-1
Capacity:	1874
Depot Node:	86
#Nodes:		150
#Edges:		2
#Arcs:		290
#Required N:	79
#Required E:	2
#Required A:	60

ReN.	DEMAND	S. COST
N2	421	421
N3	480	480
N5	233	233
N6	333	333
N10	458	458
N12	109	109
N13	154	154
N14	178	178
N16	92	92
N20	372	372
N22	299	299
N27	387	387
N28	123	123
N29	340	340
N30	119	119
N32	274	274
N33	474	474
N39	258	258
N41	406	406
N42	444	444
N43	341	341
N44	196	196
N45	382	382
N46	415	415
N47	300	300
N48	307	307
N50	273	273
N51	61	61
N53	404	404
N54	115	115
N58	390	390
N62	305	305
N64	299	299
N65	79	79
N67	351	351
N68	173	173
N71	377	377
N74	483	483
N75	107	107
N76	78	78
N79	221	221
N80	335	335
N83	308	308
N84	251	251
N85	498	498
N87	283	283
N91	486	486
N92	490	490
N94	374	374
N98	66	66
N99	207	207
N100	56	56
N101	278	278
N103	183	183
N108	364	364
N109	108	108
N113	336	336
N114	197	197
N116	363	363
N117	360	360
N120	371	371
N121	182	182
N122	131	131
N123	165	165
N124	295	295
N125	118	118
N127	175	175
N130	239	239
N132	92	92
N133	374	374
N135	71	71
N137	402	402
N139	167	167
N140	200	200
N142	72	72
N143	402	402
N144	429	429
N148	148	148
N150	399	399

ReE.	From N.	To N.	T. COST	DEMAND	S. COST
E1	3	4	18	270	288
E2	59	72	16	213	229

EDGE	FROM N.	TO N.	T. COST

ReA.	FROM N.	TO N.	T. COST	DEMAND	S. COST
A1	4	5	18	265	283
A2	12	21	18	245	263
A3	15	14	19	238	257
A4	17	8	18	278	296
A5	19	18	19	199	218
A6	20	11	24	360	384
A7	27	28	19	243	262
A8	37	38	18	202	220
A9	38	37	18	303	321
A10	42	41	19	347	366
A11	50	51	17	242	259
A12	52	51	21	322	343
A13	53	52	17	95	112
A14	60	61	20	104	124
A15	61	62	19	27	46
A16	63	50	17	271	288
A17	64	77	21	179	200
A18	65	52	15	291	306
A19	65	78	22	128	150
A20	69	56	22	176	198
A21	70	83	25	342	367
A22	73	60	17	128	145
A23	75	74	22	243	265
A24	77	76	14	112	126
A25	81	80	18	269	287
A26	82	69	15	399	414
A27	84	70	30	265	295
A28	84	96	24	214	238
A29	90	78	17	256	273
A30	91	79	21	23	44
A31	93	82	18	225	243
A32	93	106	24	338	362
A33	95	84	18	304	322
A34	99	98	19	325	344
A35	100	89	23	115	138
A36	100	101	19	366	385
A37	104	115	19	370	389
A38	108	95	21	33	54
A39	108	109	20	208	228
A40	110	111	22	31	53
A41	114	113	18	56	74
A42	116	129	21	212	233
A43	117	106	16	343	359
A44	123	111	20	265	285
A45	125	124	19	13	32
A46	126	137	22	394	416
A47	127	128	19	34	53
A48	129	128	21	388	409
A49	131	132	18	160	178
A50	133	143	20	339	359
A51	136	137	19	115	134
A52	138	128	17	57	74
A53	140	118	39	378	417
A54	140	141	36	73	109
A55	141	131	25	135	160
A56	142	132	18	238	256
A57	142	141	19	313	332
A58	144	134	15	393	408
A59	145	144	22	161	183
A60	147	146	19	79	98

ARC	FROM N.	TO N.	T. COST
NrA1	1	2	19
NrA2	2	3	20
NrA3	2	23	39
NrA4	3	13	18
NrA5	5	6	20
NrA6	6	7	20
NrA7	6	27	37
NrA8	7	8	38
NrA9	7	16	18
NrA10	8	9	19
NrA11	9	10	22
NrA12	10	11	17
NrA13	10	19	20
NrA14	11	12	16
NrA15	13	24	24
NrA16	14	4	20
NrA17	14	13	19
NrA18	15	5	19
NrA19	16	28	24
NrA20	17	16	36
NrA21	18	9	21
NrA22	18	17	19
NrA23	18	30	16
NrA24	19	31	21
NrA25	20	19	21
NrA26	21	20	19
NrA27	21	33	18
NrA28	22	1	44
NrA29	22	34	16
NrA30	23	22	18
NrA31	24	23	21
NrA32	24	35	17
NrA33	25	14	22
NrA34	25	24	21
NrA35	25	26	20
NrA36	26	15	18
NrA37	27	6	37
NrA38	27	26	15
NrA39	28	27	19
NrA40	28	29	39
NrA41	28	39	17
NrA42	29	17	18
NrA43	29	30	21
NrA44	30	31	16
NrA45	30	41	21
NrA46	31	32	20
NrA47	31	42	17
NrA48	32	20	19
NrA49	32	33	20
NrA50	33	43	20
NrA51	34	35	37
NrA52	35	36	22
NrA53	36	25	18
NrA54	36	37	19
NrA55	37	26	20
NrA56	38	27	19
NrA57	38	39	20
NrA58	39	40	38
NrA59	40	29	23
NrA60	40	41	20
NrA61	40	52	18
NrA62	41	30	21
NrA63	41	53	21
NrA64	42	54	21
NrA65	43	42	37
NrA66	43	56	22
NrA67	44	34	22
NrA68	44	57	17
NrA69	45	44	20
NrA70	45	58	22
NrA71	46	35	17
NrA72	46	45	19
NrA73	46	59	22
NrA74	47	36	17
NrA75	47	46	18
NrA76	47	60	22
NrA77	48	37	18
NrA78	48	47	19
NrA79	49	38	22
NrA80	49	48	17
NrA81	49	62	13
NrA82	50	39	23
NrA83	50	49	21
NrA84	51	50	17
NrA85	51	64	19
NrA86	53	66	15
NrA87	54	53	17
NrA88	54	55	24
NrA89	55	56	17
NrA90	56	69	22
NrA91	57	58	18
NrA92	58	59	18
NrA93	58	71	14
NrA94	59	46	22
NrA95	59	60	19
NrA96	61	48	21
NrA97	62	63	20
NrA98	63	64	19
NrA99	64	65	19
NrA100	65	66	17
NrA101	66	67	24
NrA102	66	79	21
NrA103	67	54	19
NrA104	67	80	21
NrA105	68	55	21
NrA106	68	67	17
NrA107	68	81	19
NrA108	69	68	19
NrA109	70	57	15
NrA110	71	70	20
NrA111	71	84	22
NrA112	72	71	17
NrA113	72	73	19
NrA114	72	85	17
NrA115	73	72	19
NrA116	73	86	16
NrA117	74	61	14
NrA118	74	73	18
NrA119	74	75	22
NrA120	75	62	25
NrA121	75	88	17
NrA122	76	63	20
NrA123	76	75	21
NrA124	77	64	21
NrA125	78	77	21
NrA126	79	78	19
NrA127	80	79	20
NrA128	80	92	17
NrA129	81	68	19
NrA130	82	81	18
NrA131	83	84	18
NrA132	84	83	18
NrA133	84	85	20
NrA134	85	86	16
NrA135	86	87	22
NrA136	86	97	20
NrA137	87	74	22
NrA138	87	86	22
NrA139	87	88	19
NrA140	88	89	19
NrA141	88	99	22
NrA142	89	76	16
NrA143	89	100	23
NrA144	90	91	21
NrA145	91	92	14
NrA146	91	103	18
NrA147	92	93	40
NrA148	92	104	15
NrA149	94	83	17
NrA150	94	107	21
NrA151	95	94	18
NrA152	96	84	24
NrA153	96	85	19
NrA154	96	95	20
NrA155	96	109	22
NrA156	97	96	17
NrA157	98	87	17
NrA158	98	97	19
NrA159	98	99	19
NrA160	99	111	18
NrA161	100	78	53
NrA162	100	99	20
NrA163	101	102	21
NrA164	102	90	21
NrA165	102	103	19
NrA166	103	127	37
NrA167	104	103	19
NrA168	105	104	19
NrA169	105	116	16
NrA170	106	105	22
NrA171	107	108	21
NrA172	109	110	37
NrA173	109	120	19
NrA174	110	98	21
NrA175	111	112	19
NrA176	112	100	19
NrA177	112	111	19
NrA178	112	113	19
NrA179	113	101	21
NrA180	113	125	18
NrA181	114	102	17
NrA182	115	116	18
NrA183	116	115	18
NrA184	116	117	20
NrA185	117	130	18
NrA186	118	107	20
NrA187	118	119	21
NrA188	118	140	39
NrA189	119	108	18
NrA190	119	118	21
NrA191	120	119	19
NrA192	120	131	16
NrA193	121	120	18
NrA194	122	110	17
NrA195	122	121	18
NrA196	123	122	22
NrA197	124	112	17
NrA198	124	123	16
NrA199	125	136	21
NrA200	126	114	19
NrA201	126	125	19
NrA202	127	126	19
NrA203	128	115	19
NrA204	130	117	18
NrA205	130	129	16
NrA206	130	139	19
NrA207	132	121	19
NrA208	132	133	20
NrA209	133	122	21
NrA210	133	134	18
NrA211	134	123	18
NrA212	134	135	18
NrA213	135	124	20
NrA214	135	136	19
NrA215	135	145	20
NrA216	137	126	22
NrA217	137	147	15
NrA218	138	139	38
NrA219	139	150	19
NrA220	143	142	20
NrA221	144	143	19
NrA222	145	135	20
NrA223	146	136	19
NrA224	146	145	15
NrA225	146	147	19
NrA226	147	148	19
NrA227	148	127	34
NrA228	148	149	20
NrA229	149	138	22
NrA230	150	149	36

